; benchmark generated from python API
(set-info :status unknown)
(declare-fun cell_1_1 () Int)
(declare-fun cell_1_7 () Int)
(declare-fun cell_2_4 () Int)
(declare-fun cell_2_5 () Int)
(declare-fun cell_3_1 () Int)
(declare-fun cell_3_8 () Int)
(declare-fun cell_4_3 () Int)
(declare-fun cell_4_9 () Int)
(declare-fun cell_5_2 () Int)
(declare-fun cell_5_6 () Int)
(declare-fun cell_6_6 () Int)
(declare-fun cell_6_9 () Int)
(declare-fun cell_7_2 () Int)
(declare-fun cell_7_3 () Int)
(declare-fun cell_8_5 () Int)
(declare-fun cell_8_8 () Int)
(declare-fun cell_9_4 () Int)
(declare-fun cell_9_7 () Int)
(declare-fun cell_2_1 () Int)
(declare-fun cell_4_1 () Int)
(declare-fun cell_5_1 () Int)
(declare-fun cell_6_1 () Int)
(declare-fun cell_7_1 () Int)
(declare-fun cell_8_1 () Int)
(declare-fun cell_9_1 () Int)
(declare-fun cell_1_2 () Int)
(declare-fun cell_2_2 () Int)
(declare-fun cell_3_2 () Int)
(declare-fun cell_4_2 () Int)
(declare-fun cell_6_2 () Int)
(declare-fun cell_8_2 () Int)
(declare-fun cell_9_2 () Int)
(declare-fun cell_1_3 () Int)
(declare-fun cell_2_3 () Int)
(declare-fun cell_3_3 () Int)
(declare-fun cell_5_3 () Int)
(declare-fun cell_6_3 () Int)
(declare-fun cell_8_3 () Int)
(declare-fun cell_9_3 () Int)
(declare-fun cell_1_4 () Int)
(declare-fun cell_3_4 () Int)
(declare-fun cell_4_4 () Int)
(declare-fun cell_5_4 () Int)
(declare-fun cell_6_4 () Int)
(declare-fun cell_7_4 () Int)
(declare-fun cell_8_4 () Int)
(declare-fun cell_1_5 () Int)
(declare-fun cell_3_5 () Int)
(declare-fun cell_4_5 () Int)
(declare-fun cell_5_5 () Int)
(declare-fun cell_6_5 () Int)
(declare-fun cell_7_5 () Int)
(declare-fun cell_9_5 () Int)
(declare-fun cell_1_6 () Int)
(declare-fun cell_2_6 () Int)
(declare-fun cell_3_6 () Int)
(declare-fun cell_4_6 () Int)
(declare-fun cell_7_6 () Int)
(declare-fun cell_8_6 () Int)
(declare-fun cell_9_6 () Int)
(declare-fun cell_2_7 () Int)
(declare-fun cell_3_7 () Int)
(declare-fun cell_4_7 () Int)
(declare-fun cell_5_7 () Int)
(declare-fun cell_6_7 () Int)
(declare-fun cell_7_7 () Int)
(declare-fun cell_8_7 () Int)
(declare-fun cell_1_8 () Int)
(declare-fun cell_2_8 () Int)
(declare-fun cell_4_8 () Int)
(declare-fun cell_5_8 () Int)
(declare-fun cell_6_8 () Int)
(declare-fun cell_7_8 () Int)
(declare-fun cell_9_8 () Int)
(declare-fun cell_1_9 () Int)
(declare-fun cell_2_9 () Int)
(declare-fun cell_3_9 () Int)
(declare-fun cell_5_9 () Int)
(declare-fun cell_7_9 () Int)
(declare-fun cell_8_9 () Int)
(declare-fun cell_9_9 () Int)
(assert
 (= cell_1_1 2))
(assert
 (= cell_1_7 1))
(assert
 (= cell_2_4 2))
(assert
 (= cell_2_5 1))
(assert
 (= cell_3_1 1))
(assert
 (= cell_3_8 2))
(assert
 (= cell_4_3 1))
(assert
 (= cell_4_9 2))
(assert
 (= cell_5_2 2))
(assert
 (= cell_5_6 1))
(assert
 (= cell_6_6 2))
(assert
 (= cell_6_9 1))
(assert
 (= cell_7_2 1))
(assert
 (= cell_7_3 2))
(assert
 (= cell_8_5 2))
(assert
 (= cell_8_8 1))
(assert
 (= cell_9_4 1))
(assert
 (= cell_9_7 2))
(assert
 (let (($x87 (= cell_1_1 2)))
 (or (= cell_1_1 1) $x87 (= cell_1_1 3) (= cell_1_1 4) (= cell_1_1 5) (= cell_1_1 6) (= cell_1_1 7) (= cell_1_1 8) (= cell_1_1 9))))
(assert
 (let (($x2591 (= cell_2_1 9)))
 (let (($x1454 (= cell_2_1 8)))
 (let (($x2774 (= cell_2_1 7)))
 (let (($x1175 (= cell_2_1 6)))
 (let (($x2242 (= cell_2_1 5)))
 (let (($x583 (= cell_2_1 4)))
 (let (($x83 (= cell_2_1 3)))
 (let (($x2033 (= cell_2_1 2)))
 (let (($x902 (= cell_2_1 1)))
 (or $x902 $x2033 $x83 $x583 $x2242 $x1175 $x2774 $x1454 $x2591)))))))))))
(assert
 (let (($x139 (= cell_3_1 1)))
 (or $x139 (= cell_3_1 2) (= cell_3_1 3) (= cell_3_1 4) (= cell_3_1 5) (= cell_3_1 6) (= cell_3_1 7) (= cell_3_1 8) (= cell_3_1 9))))
(assert
 (let (($x2807 (= cell_4_1 9)))
 (let (($x767 (= cell_4_1 8)))
 (let (($x645 (= cell_4_1 7)))
 (let (($x1742 (= cell_4_1 6)))
 (let (($x1741 (= cell_4_1 5)))
 (let (($x1525 (= cell_4_1 4)))
 (let (($x1870 (= cell_4_1 3)))
 (let (($x2438 (= cell_4_1 2)))
 (let (($x660 (= cell_4_1 1)))
 (or $x660 $x2438 $x1870 $x1525 $x1741 $x1742 $x645 $x767 $x2807)))))))))))
(assert
 (let (($x1224 (= cell_5_1 9)))
 (let (($x1079 (= cell_5_1 8)))
 (let (($x504 (= cell_5_1 7)))
 (let (($x1605 (= cell_5_1 6)))
 (let (($x127 (= cell_5_1 5)))
 (let (($x2886 (= cell_5_1 4)))
 (let (($x409 (= cell_5_1 3)))
 (let (($x846 (= cell_5_1 2)))
 (let (($x201 (= cell_5_1 1)))
 (or $x201 $x846 $x409 $x2886 $x127 $x1605 $x504 $x1079 $x1224)))))))))))
(assert
 (let (($x418 (= cell_6_1 9)))
 (let (($x786 (= cell_6_1 8)))
 (let (($x78 (= cell_6_1 7)))
 (let (($x2661 (= cell_6_1 6)))
 (let (($x1939 (= cell_6_1 5)))
 (let (($x2276 (= cell_6_1 4)))
 (let (($x1370 (= cell_6_1 3)))
 (let (($x712 (= cell_6_1 2)))
 (let (($x355 (= cell_6_1 1)))
 (or $x355 $x712 $x1370 $x2276 $x1939 $x2661 $x78 $x786 $x418)))))))))))
(assert
 (let (($x40 (= cell_7_1 9)))
 (let (($x144 (= cell_7_1 8)))
 (let (($x1461 (= cell_7_1 7)))
 (let (($x2549 (= cell_7_1 6)))
 (let (($x678 (= cell_7_1 5)))
 (let (($x508 (= cell_7_1 4)))
 (let (($x2003 (= cell_7_1 3)))
 (let (($x1594 (= cell_7_1 2)))
 (let (($x1933 (= cell_7_1 1)))
 (or $x1933 $x1594 $x2003 $x508 $x678 $x2549 $x1461 $x144 $x40)))))))))))
(assert
 (let (($x914 (= cell_8_1 9)))
 (let (($x1526 (= cell_8_1 8)))
 (let (($x2049 (= cell_8_1 7)))
 (let (($x243 (= cell_8_1 6)))
 (let (($x549 (= cell_8_1 5)))
 (let (($x2551 (= cell_8_1 4)))
 (let (($x1374 (= cell_8_1 3)))
 (let (($x1633 (= cell_8_1 2)))
 (let (($x2020 (= cell_8_1 1)))
 (or $x2020 $x1633 $x1374 $x2551 $x549 $x243 $x2049 $x1526 $x914)))))))))))
(assert
 (let (($x22 (= cell_9_1 9)))
 (let (($x632 (= cell_9_1 8)))
 (let (($x776 (= cell_9_1 7)))
 (let (($x2060 (= cell_9_1 6)))
 (let (($x548 (= cell_9_1 5)))
 (let (($x795 (= cell_9_1 4)))
 (let (($x1380 (= cell_9_1 3)))
 (let (($x2274 (= cell_9_1 2)))
 (let (($x2497 (= cell_9_1 1)))
 (or $x2497 $x2274 $x1380 $x795 $x548 $x2060 $x776 $x632 $x22)))))))))))
(assert
 (let (($x2139 (= cell_1_2 9)))
 (let (($x1675 (= cell_1_2 8)))
 (let (($x2788 (= cell_1_2 7)))
 (let (($x337 (= cell_1_2 6)))
 (let (($x1861 (= cell_1_2 5)))
 (let (($x1623 (= cell_1_2 4)))
 (let (($x2877 (= cell_1_2 3)))
 (let (($x335 (= cell_1_2 2)))
 (let (($x1873 (= cell_1_2 1)))
 (or $x1873 $x335 $x2877 $x1623 $x1861 $x337 $x2788 $x1675 $x2139)))))))))))
(assert
 (let (($x1127 (= cell_2_2 9)))
 (let (($x1236 (= cell_2_2 8)))
 (let (($x2248 (= cell_2_2 7)))
 (let (($x1772 (= cell_2_2 6)))
 (let (($x1297 (= cell_2_2 5)))
 (let (($x2331 (= cell_2_2 4)))
 (let (($x538 (= cell_2_2 3)))
 (let (($x2295 (= cell_2_2 2)))
 (let (($x773 (= cell_2_2 1)))
 (or $x773 $x2295 $x538 $x2331 $x1297 $x1772 $x2248 $x1236 $x1127)))))))))))
(assert
 (let (($x1381 (= cell_3_2 9)))
 (let (($x1534 (= cell_3_2 8)))
 (let (($x1019 (= cell_3_2 7)))
 (let (($x184 (= cell_3_2 6)))
 (let (($x2624 (= cell_3_2 5)))
 (let (($x2529 (= cell_3_2 4)))
 (let (($x973 (= cell_3_2 3)))
 (let (($x1909 (= cell_3_2 2)))
 (let (($x2723 (= cell_3_2 1)))
 (or $x2723 $x1909 $x973 $x2529 $x2624 $x184 $x1019 $x1534 $x1381)))))))))))
(assert
 (let (($x836 (= cell_4_2 9)))
 (let (($x1497 (= cell_4_2 8)))
 (let (($x352 (= cell_4_2 7)))
 (let (($x1170 (= cell_4_2 6)))
 (let (($x33 (= cell_4_2 5)))
 (let (($x2622 (= cell_4_2 4)))
 (let (($x542 (= cell_4_2 3)))
 (let (($x2043 (= cell_4_2 2)))
 (let (($x291 (= cell_4_2 1)))
 (or $x291 $x2043 $x542 $x2622 $x33 $x1170 $x352 $x1497 $x836)))))))))))
(assert
 (let (($x2292 (= cell_5_2 2)))
 (or (= cell_5_2 1) $x2292 (= cell_5_2 3) (= cell_5_2 4) (= cell_5_2 5) (= cell_5_2 6) (= cell_5_2 7) (= cell_5_2 8) (= cell_5_2 9))))
(assert
 (let (($x51 (= cell_6_2 9)))
 (let (($x1650 (= cell_6_2 8)))
 (let (($x129 (= cell_6_2 7)))
 (let (($x2121 (= cell_6_2 6)))
 (let (($x1976 (= cell_6_2 5)))
 (let (($x2742 (= cell_6_2 4)))
 (let (($x976 (= cell_6_2 3)))
 (let (($x975 (= cell_6_2 2)))
 (let (($x226 (= cell_6_2 1)))
 (or $x226 $x975 $x976 $x2742 $x1976 $x2121 $x129 $x1650 $x51)))))))))))
(assert
 (let (($x2029 (= cell_7_2 1)))
 (or $x2029 (= cell_7_2 2) (= cell_7_2 3) (= cell_7_2 4) (= cell_7_2 5) (= cell_7_2 6) (= cell_7_2 7) (= cell_7_2 8) (= cell_7_2 9))))
(assert
 (let (($x1093 (= cell_8_2 9)))
 (let (($x177 (= cell_8_2 8)))
 (let (($x405 (= cell_8_2 7)))
 (let (($x2606 (= cell_8_2 6)))
 (let (($x331 (= cell_8_2 5)))
 (let (($x401 (= cell_8_2 4)))
 (let (($x601 (= cell_8_2 3)))
 (let (($x886 (= cell_8_2 2)))
 (let (($x822 (= cell_8_2 1)))
 (or $x822 $x886 $x601 $x401 $x331 $x2606 $x405 $x177 $x1093)))))))))))
(assert
 (let (($x1654 (= cell_9_2 9)))
 (let (($x2130 (= cell_9_2 8)))
 (let (($x2715 (= cell_9_2 7)))
 (let (($x2469 (= cell_9_2 6)))
 (let (($x153 (= cell_9_2 5)))
 (let (($x2573 (= cell_9_2 4)))
 (let (($x1571 (= cell_9_2 3)))
 (let (($x768 (= cell_9_2 2)))
 (let (($x2611 (= cell_9_2 1)))
 (or $x2611 $x768 $x1571 $x2573 $x153 $x2469 $x2715 $x2130 $x1654)))))))))))
(assert
 (let (($x2424 (= cell_1_3 9)))
 (let (($x899 (= cell_1_3 8)))
 (let (($x791 (= cell_1_3 7)))
 (let (($x2820 (= cell_1_3 6)))
 (let (($x1210 (= cell_1_3 5)))
 (let (($x1223 (= cell_1_3 4)))
 (let (($x2578 (= cell_1_3 3)))
 (let (($x610 (= cell_1_3 2)))
 (let (($x841 (= cell_1_3 1)))
 (or $x841 $x610 $x2578 $x1223 $x1210 $x2820 $x791 $x899 $x2424)))))))))))
(assert
 (let (($x1805 (= cell_2_3 9)))
 (let (($x2296 (= cell_2_3 8)))
 (let (($x1991 (= cell_2_3 7)))
 (let (($x872 (= cell_2_3 6)))
 (let (($x1072 (= cell_2_3 5)))
 (let (($x518 (= cell_2_3 4)))
 (let (($x1822 (= cell_2_3 3)))
 (let (($x187 (= cell_2_3 2)))
 (let (($x1957 (= cell_2_3 1)))
 (or $x1957 $x187 $x1822 $x518 $x1072 $x872 $x1991 $x2296 $x1805)))))))))))
(assert
 (let (($x244 (= cell_3_3 9)))
 (let (($x656 (= cell_3_3 8)))
 (let (($x1131 (= cell_3_3 7)))
 (let (($x1863 (= cell_3_3 6)))
 (let (($x2630 (= cell_3_3 5)))
 (let (($x637 (= cell_3_3 4)))
 (let (($x802 (= cell_3_3 3)))
 (let (($x1037 (= cell_3_3 2)))
 (let (($x17 (= cell_3_3 1)))
 (or $x17 $x1037 $x802 $x637 $x2630 $x1863 $x1131 $x656 $x244)))))))))))
(assert
 (let (($x1074 (= cell_4_3 1)))
 (or $x1074 (= cell_4_3 2) (= cell_4_3 3) (= cell_4_3 4) (= cell_4_3 5) (= cell_4_3 6) (= cell_4_3 7) (= cell_4_3 8) (= cell_4_3 9))))
(assert
 (let (($x1399 (= cell_5_3 9)))
 (let (($x745 (= cell_5_3 8)))
 (let (($x145 (= cell_5_3 7)))
 (let (($x1806 (= cell_5_3 6)))
 (let (($x1846 (= cell_5_3 5)))
 (let (($x1622 (= cell_5_3 4)))
 (let (($x1057 (= cell_5_3 3)))
 (let (($x1784 (= cell_5_3 2)))
 (let (($x1912 (= cell_5_3 1)))
 (or $x1912 $x1784 $x1057 $x1622 $x1846 $x1806 $x145 $x745 $x1399)))))))))))
(assert
 (let (($x2640 (= cell_6_3 9)))
 (let (($x672 (= cell_6_3 8)))
 (let (($x1451 (= cell_6_3 7)))
 (let (($x397 (= cell_6_3 6)))
 (let (($x1723 (= cell_6_3 5)))
 (let (($x1678 (= cell_6_3 4)))
 (let (($x2569 (= cell_6_3 3)))
 (let (($x1287 (= cell_6_3 2)))
 (let (($x1979 (= cell_6_3 1)))
 (or $x1979 $x1287 $x2569 $x1678 $x1723 $x397 $x1451 $x672 $x2640)))))))))))
(assert
 (let (($x1259 (= cell_7_3 2)))
 (or (= cell_7_3 1) $x1259 (= cell_7_3 3) (= cell_7_3 4) (= cell_7_3 5) (= cell_7_3 6) (= cell_7_3 7) (= cell_7_3 8) (= cell_7_3 9))))
(assert
 (let (($x381 (= cell_8_3 9)))
 (let (($x1831 (= cell_8_3 8)))
 (let (($x309 (= cell_8_3 7)))
 (let (($x2825 (= cell_8_3 6)))
 (let (($x1111 (= cell_8_3 5)))
 (let (($x2614 (= cell_8_3 4)))
 (let (($x714 (= cell_8_3 3)))
 (let (($x1693 (= cell_8_3 2)))
 (let (($x949 (= cell_8_3 1)))
 (or $x949 $x1693 $x714 $x2614 $x1111 $x2825 $x309 $x1831 $x381)))))))))))
(assert
 (let (($x1435 (= cell_9_3 9)))
 (let (($x2141 (= cell_9_3 8)))
 (let (($x2068 (= cell_9_3 7)))
 (let (($x1699 (= cell_9_3 6)))
 (let (($x992 (= cell_9_3 5)))
 (let (($x2782 (= cell_9_3 4)))
 (let (($x467 (= cell_9_3 3)))
 (let (($x415 (= cell_9_3 2)))
 (let (($x509 (= cell_9_3 1)))
 (or $x509 $x415 $x467 $x2782 $x992 $x1699 $x2068 $x2141 $x1435)))))))))))
(assert
 (let (($x915 (= cell_1_4 9)))
 (let (($x938 (= cell_1_4 8)))
 (let (($x150 (= cell_1_4 7)))
 (let (($x277 (= cell_1_4 6)))
 (let (($x42 (= cell_1_4 5)))
 (let (($x584 (= cell_1_4 4)))
 (let (($x451 (= cell_1_4 3)))
 (let (($x1576 (= cell_1_4 2)))
 (let (($x2416 (= cell_1_4 1)))
 (or $x2416 $x1576 $x451 $x584 $x42 $x277 $x150 $x938 $x915)))))))))))
(assert
 (let (($x166 (= cell_2_4 2)))
 (or (= cell_2_4 1) $x166 (= cell_2_4 3) (= cell_2_4 4) (= cell_2_4 5) (= cell_2_4 6) (= cell_2_4 7) (= cell_2_4 8) (= cell_2_4 9))))
(assert
 (let (($x1771 (= cell_3_4 9)))
 (let (($x1789 (= cell_3_4 8)))
 (let (($x2809 (= cell_3_4 7)))
 (let (($x342 (= cell_3_4 6)))
 (let (($x2324 (= cell_3_4 5)))
 (let (($x2642 (= cell_3_4 4)))
 (let (($x375 (= cell_3_4 3)))
 (let (($x1635 (= cell_3_4 2)))
 (let (($x2328 (= cell_3_4 1)))
 (or $x2328 $x1635 $x375 $x2642 $x2324 $x342 $x2809 $x1789 $x1771)))))))))))
(assert
 (let (($x885 (= cell_4_4 9)))
 (let (($x339 (= cell_4_4 8)))
 (let (($x2568 (= cell_4_4 7)))
 (let (($x452 (= cell_4_4 6)))
 (let (($x2899 (= cell_4_4 5)))
 (let (($x1090 (= cell_4_4 4)))
 (let (($x2410 (= cell_4_4 3)))
 (let (($x1533 (= cell_4_4 2)))
 (let (($x2315 (= cell_4_4 1)))
 (or $x2315 $x1533 $x2410 $x1090 $x2899 $x452 $x2568 $x339 $x885)))))))))))
(assert
 (let (($x2649 (= cell_5_4 9)))
 (let (($x2779 (= cell_5_4 8)))
 (let (($x2426 (= cell_5_4 7)))
 (let (($x2286 (= cell_5_4 6)))
 (let (($x1482 (= cell_5_4 5)))
 (let (($x2178 (= cell_5_4 4)))
 (let (($x2476 (= cell_5_4 3)))
 (let (($x1321 (= cell_5_4 2)))
 (let (($x2062 (= cell_5_4 1)))
 (or $x2062 $x1321 $x2476 $x2178 $x1482 $x2286 $x2426 $x2779 $x2649)))))))))))
(assert
 (let (($x1934 (= cell_6_4 9)))
 (let (($x2674 (= cell_6_4 8)))
 (let (($x2868 (= cell_6_4 7)))
 (let (($x867 (= cell_6_4 6)))
 (let (($x347 (= cell_6_4 5)))
 (let (($x597 (= cell_6_4 4)))
 (let (($x2182 (= cell_6_4 3)))
 (let (($x935 (= cell_6_4 2)))
 (let (($x2411 (= cell_6_4 1)))
 (or $x2411 $x935 $x2182 $x597 $x347 $x867 $x2868 $x2674 $x1934)))))))))))
(assert
 (let (($x2538 (= cell_7_4 9)))
 (let (($x1920 (= cell_7_4 8)))
 (let (($x1191 (= cell_7_4 7)))
 (let (($x1078 (= cell_7_4 6)))
 (let (($x218 (= cell_7_4 5)))
 (let (($x1652 (= cell_7_4 4)))
 (let (($x363 (= cell_7_4 3)))
 (let (($x2666 (= cell_7_4 2)))
 (let (($x2915 (= cell_7_4 1)))
 (or $x2915 $x2666 $x363 $x1652 $x218 $x1078 $x1191 $x1920 $x2538)))))))))))
(assert
 (let (($x173 (= cell_8_4 9)))
 (let (($x2417 (= cell_8_4 8)))
 (let (($x2672 (= cell_8_4 7)))
 (let (($x631 (= cell_8_4 6)))
 (let (($x1141 (= cell_8_4 5)))
 (let (($x693 (= cell_8_4 4)))
 (let (($x1299 (= cell_8_4 3)))
 (let (($x539 (= cell_8_4 2)))
 (let (($x2765 (= cell_8_4 1)))
 (or $x2765 $x539 $x1299 $x693 $x1141 $x631 $x2672 $x2417 $x173)))))))))))
(assert
 (let (($x1739 (= cell_9_4 1)))
 (or $x1739 (= cell_9_4 2) (= cell_9_4 3) (= cell_9_4 4) (= cell_9_4 5) (= cell_9_4 6) (= cell_9_4 7) (= cell_9_4 8) (= cell_9_4 9))))
(assert
 (let (($x2530 (= cell_1_5 9)))
 (let (($x1058 (= cell_1_5 8)))
 (let (($x1181 (= cell_1_5 7)))
 (let (($x1955 (= cell_1_5 6)))
 (let (($x2127 (= cell_1_5 5)))
 (let (($x185 (= cell_1_5 4)))
 (let (($x1342 (= cell_1_5 3)))
 (let (($x1152 (= cell_1_5 2)))
 (let (($x2658 (= cell_1_5 1)))
 (or $x2658 $x1152 $x1342 $x185 $x2127 $x1955 $x1181 $x1058 $x2530)))))))))))
(assert
 (let (($x1418 (= cell_2_5 1)))
 (or $x1418 (= cell_2_5 2) (= cell_2_5 3) (= cell_2_5 4) (= cell_2_5 5) (= cell_2_5 6) (= cell_2_5 7) (= cell_2_5 8) (= cell_2_5 9))))
(assert
 (let (($x2547 (= cell_3_5 9)))
 (let (($x2750 (= cell_3_5 8)))
 (let (($x1483 (= cell_3_5 7)))
 (let (($x2882 (= cell_3_5 6)))
 (let (($x578 (= cell_3_5 5)))
 (let (($x2298 (= cell_3_5 4)))
 (let (($x2330 (= cell_3_5 3)))
 (let (($x980 (= cell_3_5 2)))
 (let (($x522 (= cell_3_5 1)))
 (or $x522 $x980 $x2330 $x2298 $x578 $x2882 $x1483 $x2750 $x2547)))))))))))
(assert
 (let (($x2254 (= cell_4_5 9)))
 (let (($x2291 (= cell_4_5 8)))
 (let (($x1913 (= cell_4_5 7)))
 (let (($x1068 (= cell_4_5 6)))
 (let (($x2776 (= cell_4_5 5)))
 (let (($x1783 (= cell_4_5 4)))
 (let (($x1528 (= cell_4_5 3)))
 (let (($x2808 (= cell_4_5 2)))
 (let (($x2552 (= cell_4_5 1)))
 (or $x2552 $x2808 $x1528 $x1783 $x2776 $x1068 $x1913 $x2291 $x2254)))))))))))
(assert
 (let (($x2704 (= cell_5_5 9)))
 (let (($x920 (= cell_5_5 8)))
 (let (($x2137 (= cell_5_5 7)))
 (let (($x749 (= cell_5_5 6)))
 (let (($x1289 (= cell_5_5 5)))
 (let (($x222 (= cell_5_5 4)))
 (let (($x2143 (= cell_5_5 3)))
 (let (($x2325 (= cell_5_5 2)))
 (let (($x100 (= cell_5_5 1)))
 (or $x100 $x2325 $x2143 $x222 $x1289 $x749 $x2137 $x920 $x2704)))))))))))
(assert
 (let (($x609 (= cell_6_5 9)))
 (let (($x2235 (= cell_6_5 8)))
 (let (($x1681 (= cell_6_5 7)))
 (let (($x1852 (= cell_6_5 6)))
 (let (($x1364 (= cell_6_5 5)))
 (let (($x2841 (= cell_6_5 4)))
 (let (($x1871 (= cell_6_5 3)))
 (let (($x2444 (= cell_6_5 2)))
 (let (($x442 (= cell_6_5 1)))
 (or $x442 $x2444 $x1871 $x2841 $x1364 $x1852 $x1681 $x2235 $x609)))))))))))
(assert
 (let (($x433 (= cell_7_5 9)))
 (let (($x2374 (= cell_7_5 8)))
 (let (($x625 (= cell_7_5 7)))
 (let (($x2406 (= cell_7_5 6)))
 (let (($x2080 (= cell_7_5 5)))
 (let (($x1350 (= cell_7_5 4)))
 (let (($x2027 (= cell_7_5 3)))
 (let (($x534 (= cell_7_5 2)))
 (let (($x1017 (= cell_7_5 1)))
 (or $x1017 $x534 $x2027 $x1350 $x2080 $x2406 $x625 $x2374 $x433)))))))))))
(assert
 (let (($x1661 (= cell_8_5 2)))
 (or (= cell_8_5 1) $x1661 (= cell_8_5 3) (= cell_8_5 4) (= cell_8_5 5) (= cell_8_5 6) (= cell_8_5 7) (= cell_8_5 8) (= cell_8_5 9))))
(assert
 (let (($x990 (= cell_9_5 9)))
 (let (($x999 (= cell_9_5 8)))
 (let (($x308 (= cell_9_5 7)))
 (let (($x2883 (= cell_9_5 6)))
 (let (($x1963 (= cell_9_5 5)))
 (let (($x205 (= cell_9_5 4)))
 (let (($x528 (= cell_9_5 3)))
 (let (($x255 (= cell_9_5 2)))
 (let (($x2053 (= cell_9_5 1)))
 (or $x2053 $x255 $x528 $x205 $x1963 $x2883 $x308 $x999 $x990)))))))))))
(assert
 (let (($x123 (= cell_1_6 9)))
 (let (($x1895 (= cell_1_6 8)))
 (let (($x2544 (= cell_1_6 7)))
 (let (($x1209 (= cell_1_6 6)))
 (let (($x2251 (= cell_1_6 5)))
 (let (($x877 (= cell_1_6 4)))
 (let (($x131 (= cell_1_6 3)))
 (let (($x238 (= cell_1_6 2)))
 (let (($x1620 (= cell_1_6 1)))
 (or $x1620 $x238 $x131 $x877 $x2251 $x1209 $x2544 $x1895 $x123)))))))))))
(assert
 (let (($x573 (= cell_2_6 9)))
 (let (($x2294 (= cell_2_6 8)))
 (let (($x2150 (= cell_2_6 7)))
 (let (($x16 (= cell_2_6 6)))
 (let (($x3684 (= cell_2_6 5)))
 (let (($x633 (= cell_2_6 4)))
 (let (($x1388 (= cell_2_6 3)))
 (let (($x1801 (= cell_2_6 2)))
 (let (($x2496 (= cell_2_6 1)))
 (or $x2496 $x1801 $x1388 $x633 $x3684 $x16 $x2150 $x2294 $x573)))))))))))
(assert
 (let (($x2272 (= cell_3_6 9)))
 (let (($x621 (= cell_3_6 8)))
 (let (($x515 (= cell_3_6 7)))
 (let (($x2859 (= cell_3_6 6)))
 (let (($x2035 (= cell_3_6 5)))
 (let (($x394 (= cell_3_6 4)))
 (let (($x357 (= cell_3_6 3)))
 (let (($x2914 (= cell_3_6 2)))
 (let (($x2434 (= cell_3_6 1)))
 (or $x2434 $x2914 $x357 $x394 $x2035 $x2859 $x515 $x621 $x2272)))))))))))
(assert
 (let (($x937 (= cell_4_6 9)))
 (let (($x2234 (= cell_4_6 8)))
 (let (($x1867 (= cell_4_6 7)))
 (let (($x65 (= cell_4_6 6)))
 (let (($x2278 (= cell_4_6 5)))
 (let (($x2625 (= cell_4_6 4)))
 (let (($x2316 (= cell_4_6 3)))
 (let (($x1473 (= cell_4_6 2)))
 (let (($x793 (= cell_4_6 1)))
 (or $x793 $x1473 $x2316 $x2625 $x2278 $x65 $x1867 $x2234 $x937)))))))))))
(assert
 (let (($x1516 (= cell_5_6 1)))
 (or $x1516 (= cell_5_6 2) (= cell_5_6 3) (= cell_5_6 4) (= cell_5_6 5) (= cell_5_6 6) (= cell_5_6 7) (= cell_5_6 8) (= cell_5_6 9))))
(assert
 (let (($x2711 (= cell_6_6 2)))
 (or (= cell_6_6 1) $x2711 (= cell_6_6 3) (= cell_6_6 4) (= cell_6_6 5) (= cell_6_6 6) (= cell_6_6 7) (= cell_6_6 8) (= cell_6_6 9))))
(assert
 (let (($x1003 (= cell_7_6 9)))
 (let (($x923 (= cell_7_6 8)))
 (let (($x2268 (= cell_7_6 7)))
 (let (($x1006 (= cell_7_6 6)))
 (let (($x1560 (= cell_7_6 5)))
 (let (($x815 (= cell_7_6 4)))
 (let (($x727 (= cell_7_6 3)))
 (let (($x941 (= cell_7_6 2)))
 (let (($x207 (= cell_7_6 1)))
 (or $x207 $x941 $x727 $x815 $x1560 $x1006 $x2268 $x923 $x1003)))))))))))
(assert
 (let (($x2025 (= cell_8_6 9)))
 (let (($x312 (= cell_8_6 8)))
 (let (($x311 (= cell_8_6 7)))
 (let (($x2382 (= cell_8_6 6)))
 (let (($x348 (= cell_8_6 5)))
 (let (($x297 (= cell_8_6 4)))
 (let (($x266 (= cell_8_6 3)))
 (let (($x1138 (= cell_8_6 2)))
 (let (($x1438 (= cell_8_6 1)))
 (or $x1438 $x1138 $x266 $x297 $x348 $x2382 $x311 $x312 $x2025)))))))))))
(assert
 (let (($x580 (= cell_9_6 9)))
 (let (($x2494 (= cell_9_6 8)))
 (let (($x1406 (= cell_9_6 7)))
 (let (($x2759 (= cell_9_6 6)))
 (let (($x186 (= cell_9_6 5)))
 (let (($x989 (= cell_9_6 4)))
 (let (($x614 (= cell_9_6 3)))
 (let (($x1536 (= cell_9_6 2)))
 (let (($x2191 (= cell_9_6 1)))
 (or $x2191 $x1536 $x614 $x989 $x186 $x2759 $x1406 $x2494 $x580)))))))))))
(assert
 (let (($x1794 (= cell_1_7 1)))
 (or $x1794 (= cell_1_7 2) (= cell_1_7 3) (= cell_1_7 4) (= cell_1_7 5) (= cell_1_7 6) (= cell_1_7 7) (= cell_1_7 8) (= cell_1_7 9))))
(assert
 (let (($x2199 (= cell_2_7 9)))
 (let (($x1221 (= cell_2_7 8)))
 (let (($x889 (= cell_2_7 7)))
 (let (($x1290 (= cell_2_7 6)))
 (let (($x2387 (= cell_2_7 5)))
 (let (($x2650 (= cell_2_7 4)))
 (let (($x1391 (= cell_2_7 3)))
 (let (($x1785 (= cell_2_7 2)))
 (let (($x1126 (= cell_2_7 1)))
 (or $x1126 $x1785 $x1391 $x2650 $x2387 $x1290 $x889 $x1221 $x2199)))))))))))
(assert
 (let (($x800 (= cell_3_7 9)))
 (let (($x2442 (= cell_3_7 8)))
 (let (($x279 (= cell_3_7 7)))
 (let (($x239 (= cell_3_7 6)))
 (let (($x1315 (= cell_3_7 5)))
 (let (($x2610 (= cell_3_7 4)))
 (let (($x1884 (= cell_3_7 3)))
 (let (($x419 (= cell_3_7 2)))
 (let (($x2717 (= cell_3_7 1)))
 (or $x2717 $x419 $x1884 $x2610 $x1315 $x239 $x279 $x2442 $x800)))))))))))
(assert
 (let (($x2584 (= cell_4_7 9)))
 (let (($x301 (= cell_4_7 8)))
 (let (($x49 (= cell_4_7 7)))
 (let (($x450 (= cell_4_7 6)))
 (let (($x603 (= cell_4_7 5)))
 (let (($x2481 (= cell_4_7 4)))
 (let (($x385 (= cell_4_7 3)))
 (let (($x448 (= cell_4_7 2)))
 (let (($x1437 (= cell_4_7 1)))
 (or $x1437 $x448 $x385 $x2481 $x603 $x450 $x49 $x301 $x2584)))))))))))
(assert
 (let (($x2280 (= cell_5_7 9)))
 (let (($x1829 (= cell_5_7 8)))
 (let (($x956 (= cell_5_7 7)))
 (let (($x1876 (= cell_5_7 6)))
 (let (($x1530 (= cell_5_7 5)))
 (let (($x224 (= cell_5_7 4)))
 (let (($x261 (= cell_5_7 3)))
 (let (($x1154 (= cell_5_7 2)))
 (let (($x1235 (= cell_5_7 1)))
 (or $x1235 $x1154 $x261 $x224 $x1530 $x1876 $x956 $x1829 $x2280)))))))))))
(assert
 (let (($x2393 (= cell_6_7 9)))
 (let (($x1160 (= cell_6_7 8)))
 (let (($x2855 (= cell_6_7 7)))
 (let (($x2687 (= cell_6_7 6)))
 (let (($x1474 (= cell_6_7 5)))
 (let (($x1002 (= cell_6_7 4)))
 (let (($x2181 (= cell_6_7 3)))
 (let (($x2786 (= cell_6_7 2)))
 (let (($x1645 (= cell_6_7 1)))
 (or $x1645 $x2786 $x2181 $x1002 $x1474 $x2687 $x2855 $x1160 $x2393)))))))))))
(assert
 (let (($x1828 (= cell_7_7 9)))
 (let (($x1280 (= cell_7_7 8)))
 (let (($x176 (= cell_7_7 7)))
 (let (($x576 (= cell_7_7 6)))
 (let (($x766 (= cell_7_7 5)))
 (let (($x2069 (= cell_7_7 4)))
 (let (($x634 (= cell_7_7 3)))
 (let (($x82 (= cell_7_7 2)))
 (let (($x1540 (= cell_7_7 1)))
 (or $x1540 $x82 $x634 $x2069 $x766 $x576 $x176 $x1280 $x1828)))))))))))
(assert
 (let (($x1929 (= cell_8_7 9)))
 (let (($x861 (= cell_8_7 8)))
 (let (($x422 (= cell_8_7 7)))
 (let (($x987 (= cell_8_7 6)))
 (let (($x1470 (= cell_8_7 5)))
 (let (($x1587 (= cell_8_7 4)))
 (let (($x2013 (= cell_8_7 3)))
 (let (($x1302 (= cell_8_7 2)))
 (let (($x616 (= cell_8_7 1)))
 (or $x616 $x1302 $x2013 $x1587 $x1470 $x987 $x422 $x861 $x1929)))))))))))
(assert
 (let (($x1648 (= cell_9_7 2)))
 (or (= cell_9_7 1) $x1648 (= cell_9_7 3) (= cell_9_7 4) (= cell_9_7 5) (= cell_9_7 6) (= cell_9_7 7) (= cell_9_7 8) (= cell_9_7 9))))
(assert
 (let (($x2753 (= cell_1_8 9)))
 (let (($x178 (= cell_1_8 8)))
 (let (($x2595 (= cell_1_8 7)))
 (let (($x67 (= cell_1_8 6)))
 (let (($x2910 (= cell_1_8 5)))
 (let (($x2601 (= cell_1_8 4)))
 (let (($x2346 (= cell_1_8 3)))
 (let (($x602 (= cell_1_8 2)))
 (let (($x635 (= cell_1_8 1)))
 (or $x635 $x602 $x2346 $x2601 $x2910 $x67 $x2595 $x178 $x2753)))))))))))
(assert
 (let (($x1835 (= cell_2_8 9)))
 (let (($x1044 (= cell_2_8 8)))
 (let (($x298 (= cell_2_8 7)))
 (let (($x2458 (= cell_2_8 6)))
 (let (($x1521 (= cell_2_8 5)))
 (let (($x2418 (= cell_2_8 4)))
 (let (($x502 (= cell_2_8 3)))
 (let (($x870 (= cell_2_8 2)))
 (let (($x696 (= cell_2_8 1)))
 (or $x696 $x870 $x502 $x2418 $x1521 $x2458 $x298 $x1044 $x1835)))))))))))
(assert
 (let (($x587 (= cell_3_8 2)))
 (or (= cell_3_8 1) $x587 (= cell_3_8 3) (= cell_3_8 4) (= cell_3_8 5) (= cell_3_8 6) (= cell_3_8 7) (= cell_3_8 8) (= cell_3_8 9))))
(assert
 (let (($x1833 (= cell_4_8 9)))
 (let (($x1167 (= cell_4_8 8)))
 (let (($x2249 (= cell_4_8 7)))
 (let (($x1728 (= cell_4_8 6)))
 (let (($x754 (= cell_4_8 5)))
 (let (($x755 (= cell_4_8 4)))
 (let (($x1558 (= cell_4_8 3)))
 (let (($x523 (= cell_4_8 2)))
 (let (($x1658 (= cell_4_8 1)))
 (or $x1658 $x523 $x1558 $x755 $x754 $x1728 $x2249 $x1167 $x1833)))))))))))
(assert
 (let (($x151 (= cell_5_8 9)))
 (let (($x114 (= cell_5_8 8)))
 (let (($x2749 (= cell_5_8 7)))
 (let (($x965 (= cell_5_8 6)))
 (let (($x1261 (= cell_5_8 5)))
 (let (($x1626 (= cell_5_8 4)))
 (let (($x1110 (= cell_5_8 3)))
 (let (($x1562 (= cell_5_8 2)))
 (let (($x1185 (= cell_5_8 1)))
 (or $x1185 $x1562 $x1110 $x1626 $x1261 $x965 $x2749 $x114 $x151)))))))))))
(assert
 (let (($x56 (= cell_6_8 9)))
 (let (($x1581 (= cell_6_8 8)))
 (let (($x1197 (= cell_6_8 7)))
 (let (($x2040 (= cell_6_8 6)))
 (let (($x1670 (= cell_6_8 5)))
 (let (($x73 (= cell_6_8 4)))
 (let (($x2123 (= cell_6_8 3)))
 (let (($x2048 (= cell_6_8 2)))
 (let (($x5 (= cell_6_8 1)))
 (or $x5 $x2048 $x2123 $x73 $x1670 $x2040 $x1197 $x1581 $x56)))))))))))
(assert
 (let (($x1499 (= cell_7_8 9)))
 (let (($x513 (= cell_7_8 8)))
 (let (($x1998 (= cell_7_8 7)))
 (let (($x462 (= cell_7_8 6)))
 (let (($x303 (= cell_7_8 5)))
 (let (($x1281 (= cell_7_8 4)))
 (let (($x2224 (= cell_7_8 3)))
 (let (($x1101 (= cell_7_8 2)))
 (let (($x216 (= cell_7_8 1)))
 (or $x216 $x1101 $x2224 $x1281 $x303 $x462 $x1998 $x513 $x1499)))))))))))
(assert
 (let (($x2562 (= cell_8_8 1)))
 (or $x2562 (= cell_8_8 2) (= cell_8_8 3) (= cell_8_8 4) (= cell_8_8 5) (= cell_8_8 6) (= cell_8_8 7) (= cell_8_8 8) (= cell_8_8 9))))
(assert
 (let (($x1183 (= cell_9_8 2)))
 (let (($x655 (= cell_9_8 1)))
 (or $x655 $x1183 (= cell_9_8 3) (= cell_9_8 4) (= cell_9_8 5) (= cell_9_8 6) (= cell_9_8 7) (= cell_9_8 8) (= cell_9_8 9)))))
(assert
 (let (($x2213 (= cell_1_9 9)))
 (let (($x1021 (= cell_1_9 8)))
 (let (($x258 (= cell_1_9 7)))
 (let (($x112 (= cell_1_9 6)))
 (let (($x1484 (= cell_1_9 5)))
 (let (($x2337 (= cell_1_9 4)))
 (let (($x820 (= cell_1_9 3)))
 (let (($x1945 (= cell_1_9 2)))
 (let (($x485 (= cell_1_9 1)))
 (or $x485 $x1945 $x820 $x2337 $x1484 $x112 $x258 $x1021 $x2213)))))))))))
(assert
 (let (($x537 (= cell_2_9 9)))
 (let (($x733 (= cell_2_9 8)))
 (let (($x1949 (= cell_2_9 7)))
 (let (($x2467 (= cell_2_9 6)))
 (let (($x374 (= cell_2_9 5)))
 (let (($x563 (= cell_2_9 4)))
 (let (($x1420 (= cell_2_9 3)))
 (let (($x2479 (= cell_2_9 2)))
 (let (($x39 (= cell_2_9 1)))
 (or $x39 $x2479 $x1420 $x563 $x374 $x2467 $x1949 $x733 $x537)))))))))))
(assert
 (let (($x1319 (= cell_3_9 9)))
 (let (($x2586 (= cell_3_9 8)))
 (let (($x1570 (= cell_3_9 7)))
 (let (($x922 (= cell_3_9 6)))
 (let (($x2892 (= cell_3_9 5)))
 (let (($x828 (= cell_3_9 4)))
 (let (($x1240 (= cell_3_9 3)))
 (let (($x758 (= cell_3_9 2)))
 (let (($x1746 (= cell_3_9 1)))
 (or $x1746 $x758 $x1240 $x828 $x2892 $x922 $x1570 $x2586 $x1319)))))))))))
(assert
 (let (($x2118 (= cell_4_9 2)))
 (or (= cell_4_9 1) $x2118 (= cell_4_9 3) (= cell_4_9 4) (= cell_4_9 5) (= cell_4_9 6) (= cell_4_9 7) (= cell_4_9 8) (= cell_4_9 9))))
(assert
 (let (($x2031 (= cell_5_9 9)))
 (let (($x1803 (= cell_5_9 8)))
 (let (($x414 (= cell_5_9 7)))
 (let (($x2754 (= cell_5_9 6)))
 (let (($x2004 (= cell_5_9 5)))
 (let (($x2637 (= cell_5_9 4)))
 (let (($x1907 (= cell_5_9 3)))
 (let (($x607 (= cell_5_9 2)))
 (let (($x38 (= cell_5_9 1)))
 (or $x38 $x607 $x1907 $x2637 $x2004 $x2754 $x414 $x1803 $x2031)))))))))))
(assert
 (let (($x2475 (= cell_6_9 1)))
 (or $x2475 (= cell_6_9 2) (= cell_6_9 3) (= cell_6_9 4) (= cell_6_9 5) (= cell_6_9 6) (= cell_6_9 7) (= cell_6_9 8) (= cell_6_9 9))))
(assert
 (let (($x424 (= cell_7_9 9)))
 (let (($x1819 (= cell_7_9 8)))
 (let (($x2860 (= cell_7_9 7)))
 (let (($x1764 (= cell_7_9 6)))
 (let (($x1504 (= cell_7_9 5)))
 (let (($x227 (= cell_7_9 4)))
 (let (($x231 (= cell_7_9 3)))
 (let (($x1242 (= cell_7_9 2)))
 (let (($x1588 (= cell_7_9 1)))
 (or $x1588 $x1242 $x231 $x227 $x1504 $x1764 $x2860 $x1819 $x424)))))))))))
(assert
 (let (($x115 (= cell_8_9 9)))
 (let (($x2797 (= cell_8_9 8)))
 (let (($x1432 (= cell_8_9 7)))
 (let (($x431 (= cell_8_9 6)))
 (let (($x627 (= cell_8_9 5)))
 (let (($x2511 (= cell_8_9 4)))
 (let (($x1966 (= cell_8_9 3)))
 (let (($x1048 (= cell_8_9 2)))
 (let (($x1262 (= cell_8_9 1)))
 (or $x1262 $x1048 $x1966 $x2511 $x627 $x431 $x1432 $x2797 $x115)))))))))))
(assert
 (let (($x2560 (= cell_9_9 2)))
 (let (($x434 (= cell_9_9 1)))
 (or $x434 $x2560 (= cell_9_9 3) (= cell_9_9 4) (= cell_9_9 5) (= cell_9_9 6) (= cell_9_9 7) (= cell_9_9 8) (= cell_9_9 9)))))
(assert
 (and (distinct cell_1_1 cell_1_2 cell_1_3 cell_1_4 cell_1_5 cell_1_6 cell_1_7 cell_1_8 cell_1_9) true))
(assert
 (and (distinct cell_2_1 cell_2_2 cell_2_3 cell_2_4 cell_2_5 cell_2_6 cell_2_7 cell_2_8 cell_2_9) true))
(assert
 (and (distinct cell_3_1 cell_3_2 cell_3_3 cell_3_4 cell_3_5 cell_3_6 cell_3_7 cell_3_8 cell_3_9) true))
(assert
 (and (distinct cell_4_1 cell_4_2 cell_4_3 cell_4_4 cell_4_5 cell_4_6 cell_4_7 cell_4_8 cell_4_9) true))
(assert
 (and (distinct cell_5_1 cell_5_2 cell_5_3 cell_5_4 cell_5_5 cell_5_6 cell_5_7 cell_5_8 cell_5_9) true))
(assert
 (and (distinct cell_6_1 cell_6_2 cell_6_3 cell_6_4 cell_6_5 cell_6_6 cell_6_7 cell_6_8 cell_6_9) true))
(assert
 (and (distinct cell_7_1 cell_7_2 cell_7_3 cell_7_4 cell_7_5 cell_7_6 cell_7_7 cell_7_8 cell_7_9) true))
(assert
 (and (distinct cell_8_1 cell_8_2 cell_8_3 cell_8_4 cell_8_5 cell_8_6 cell_8_7 cell_8_8 cell_8_9) true))
(assert
 (and (distinct cell_9_1 cell_9_2 cell_9_3 cell_9_4 cell_9_5 cell_9_6 cell_9_7 cell_9_8 cell_9_9) true))
(assert
 (and (distinct cell_1_1 cell_2_1 cell_3_1 cell_4_1 cell_5_1 cell_6_1 cell_7_1 cell_8_1 cell_9_1) true))
(assert
 (and (distinct cell_1_2 cell_2_2 cell_3_2 cell_4_2 cell_5_2 cell_6_2 cell_7_2 cell_8_2 cell_9_2) true))
(assert
 (and (distinct cell_1_3 cell_2_3 cell_3_3 cell_4_3 cell_5_3 cell_6_3 cell_7_3 cell_8_3 cell_9_3) true))
(assert
 (and (distinct cell_1_4 cell_2_4 cell_3_4 cell_4_4 cell_5_4 cell_6_4 cell_7_4 cell_8_4 cell_9_4) true))
(assert
 (and (distinct cell_1_5 cell_2_5 cell_3_5 cell_4_5 cell_5_5 cell_6_5 cell_7_5 cell_8_5 cell_9_5) true))
(assert
 (and (distinct cell_1_6 cell_2_6 cell_3_6 cell_4_6 cell_5_6 cell_6_6 cell_7_6 cell_8_6 cell_9_6) true))
(assert
 (and (distinct cell_1_7 cell_2_7 cell_3_7 cell_4_7 cell_5_7 cell_6_7 cell_7_7 cell_8_7 cell_9_7) true))
(assert
 (and (distinct cell_1_8 cell_2_8 cell_3_8 cell_4_8 cell_5_8 cell_6_8 cell_7_8 cell_8_8 cell_9_8) true))
(assert
 (and (distinct cell_1_9 cell_2_9 cell_3_9 cell_4_9 cell_5_9 cell_6_9 cell_7_9 cell_8_9 cell_9_9) true))
(assert
 (and (distinct cell_1_1 cell_1_2 cell_1_3 cell_2_1 cell_2_2 cell_2_3 cell_3_1 cell_3_2 cell_3_3) true))
(assert
 (and (distinct cell_1_4 cell_1_5 cell_1_6 cell_2_4 cell_2_5 cell_2_6 cell_3_4 cell_3_5 cell_3_6) true))
(assert
 (and (distinct cell_1_7 cell_1_8 cell_1_9 cell_2_7 cell_2_8 cell_2_9 cell_3_7 cell_3_8 cell_3_9) true))
(assert
 (and (distinct cell_4_1 cell_4_2 cell_4_3 cell_5_1 cell_5_2 cell_5_3 cell_6_1 cell_6_2 cell_6_3) true))
(assert
 (and (distinct cell_4_4 cell_4_5 cell_4_6 cell_5_4 cell_5_5 cell_5_6 cell_6_4 cell_6_5 cell_6_6) true))
(assert
 (and (distinct cell_4_7 cell_4_8 cell_4_9 cell_5_7 cell_5_8 cell_5_9 cell_6_7 cell_6_8 cell_6_9) true))
(assert
 (and (distinct cell_7_1 cell_7_2 cell_7_3 cell_8_1 cell_8_2 cell_8_3 cell_9_1 cell_9_2 cell_9_3) true))
(assert
 (and (distinct cell_7_4 cell_7_5 cell_7_6 cell_8_4 cell_8_5 cell_8_6 cell_9_4 cell_9_5 cell_9_6) true))
(assert
 (and (distinct cell_7_7 cell_7_8 cell_7_9 cell_8_7 cell_8_8 cell_8_9 cell_9_7 cell_9_8 cell_9_9) true))
(assert
 (let (($x3373 (and (distinct cell_5_9 cell_6_8 cell_7_7 cell_8_6) true)))
 (let (($x3379 (and (distinct cell_2_9 cell_3_8 cell_4_7 cell_5_6 cell_6_5 cell_7_4 cell_8_3 cell_9_2) true)))
 (let (($x1925 (and (distinct cell_1_8 cell_2_7 cell_3_6 cell_4_5 cell_5_4 cell_6_3 cell_7_2 cell_8_1) true)))
 (let (($x3562 (and (distinct cell_1_5 cell_2_4 cell_3_3 cell_4_2) true)))
 (let (($x3508 (and (distinct cell_5_1 cell_6_2 cell_7_3 cell_8_4) true)))
 (let (($x1968 (and (distinct cell_2_1 cell_3_2 cell_4_3 cell_5_4 cell_6_5 cell_7_6 cell_8_7 cell_9_8) true)))
 (let (($x3595 (and (distinct cell_1_2 cell_2_3 cell_3_4 cell_4_5 cell_5_6 cell_6_7 cell_7_8 cell_8_9) true)))
 (let (($x3541 (and (distinct cell_1_5 cell_2_6 cell_3_7 cell_4_8) true)))
 (and $x3541 $x3595 $x1968 $x3508 $x3562 $x1925 $x3379 $x3373))))))))))
(assert
 (= cell_1_9 3))
(check-sat)
